ws_caric/src/star_planner/utils/lkh_tsp_solver/resource/changi_single.tsp
NAME : single
TYPE : ATSP
DIMENSION : 5
EDGE_WEIGHT_TYPE : EXPLICIT
EDGE_WEIGHT_FORMAT : FULL_MATRIX
EDGE_WEIGHT_SECTION
0 1834 2013 1736 0 
10000000 0 220 135 741 
10000000 220 0 89 531 
10000000 135 89 0 618 
0 10000000 10000000 10000000 0 
EOF